SPARKNaCl/why3-cvc5/sparknacl-core.adb_402_19_range_check2_2.smt2
;; produced by cvc5.drv ;;
(set-logic ALL)
(set-info :smt-lib-version 2.6)
;;; generated by SMT-LIB2 driver
;;; SMT-LIB2 driver: bit-vectors, common part
;;; SMT-LIB2: integer arithmetic
;; "length"
(define-fun length ((x Int) (y Int)) Int
  (ite (<= x y) (+ (- y x) 1) 0))

;; "pow2"
(declare-fun pow2 (Int) Int)

(declare-const two_power_size_minus_one Int)

;; "two_power_size_minus_one_val"
(assert (= two_power_size_minus_one (pow2 (- 8 1))))

;; "min"
(define-fun min ((x Int) (y Int)) Int
  (ite (<= x y) x y))

;; "max"
(define-fun max ((x Int) (y Int)) Int
  (ite (<= x y) y x))

;; "Min_r"
(assert (forall ((x Int) (y Int)) (=> (<= y x) (= (min x y) y))))

;; "Max_l"
(assert (forall ((x Int) (y Int)) (=> (<= y x) (= (max x y) x))))

;; "Min_comm"
(assert (forall ((x Int) (y Int)) (= (min x y) (min y x))))

;; "Max_comm"
(assert (forall ((x Int) (y Int)) (= (max x y) (max y x))))

;; "Min_assoc"
(assert
  (forall ((x Int) (y Int) (z Int)) (= (min (min x y) z) (min x (min y z)))))

;; "Max_assoc"
(assert
  (forall ((x Int) (y Int) (z Int)) (= (max (max x y) z) (max x (max y z)))))

(declare-const two_power_size_minus_one1 Int)

;; "two_power_size_minus_one_val"
(assert (= two_power_size_minus_one1 (pow2 (- 32 1))))

(declare-sort u32 0)

;; "to_rep"
(declare-fun to_rep (u32) (_ BitVec 32))

;; "of_rep"
(declare-fun of_rep ((_ BitVec 32)) u32)

;; "inversion_axiom"
(assert
  (forall ((x u32)) (! (= (of_rep (to_rep x)) x) :pattern ((to_rep x)) )))

;; "range_axiom"
(assert true)

;; "coerce_axiom"
(assert
  (forall ((x (_ BitVec 32)))
    (! (= (to_rep (of_rep x)) x) :pattern ((to_rep (of_rep x))) )))

(declare-sort map1 0)

;; "has_bounds"
(declare-fun has_bounds (map1
  Int
  Int) Bool)

(declare-datatypes ((us_split_fields 0))
  (((us_split_fieldsqtmk
    (rec__ada___sparknacl__core__chacha20_context__f map1)))))

(declare-datatypes ((us_rep 0))
  (((us_repqtmk (us_split_fields1 us_split_fields)))))

;; "dynamic_invariant"
(define-fun dynamic_invariant ((temp___expr_371 us_rep) (temp___is_init_367 Bool) (temp___skip_constant_368 Bool) (temp___do_toplevel_369 Bool) (temp___do_typ_inv_370 Bool)) Bool
  (has_bounds
    (rec__ada___sparknacl__core__chacha20_context__f
      (us_split_fields1 temp___expr_371))
    0
    15))

(declare-const context us_rep)

(declare-sort byte 0)

(declare-sort map2 0)

;; "has_bounds"
(declare-fun has_bounds1 (map2
  Int
  Int) Bool)

(declare-sort tinteger_32B 0)

;; "tinteger_32B'int"
(declare-fun tinteger_32Bqtint (tinteger_32B) Int)

;; "tinteger_32B'axiom"
(assert
  (forall ((i tinteger_32B))
    (and
      (<= (- 2147483648) (tinteger_32Bqtint i))
      (<= (tinteger_32Bqtint i) 2147483647))))

;; "in_range"
(define-fun in_range ((x Int)) Bool
  (and (<= (- 2147483648) x) (<= x 2147483647)))

(declare-const c__first tinteger_32B)

(declare-const c__last tinteger_32B)

;; "to_rep"
(define-fun to_rep1 ((x tinteger_32B)) Int
  (tinteger_32Bqtint x))

;; "of_rep"
(declare-fun of_rep1 (Int) tinteger_32B)

;; "inversion_axiom"
(assert
  (forall ((x tinteger_32B))
    (! (= (of_rep1 (to_rep1 x)) x) :pattern ((to_rep1 x)) )))

;; "range_axiom"
(assert
  (forall ((x tinteger_32B))
    (! (in_range (to_rep1 x)) :pattern ((to_rep1 x)) )))

;; "coerce_axiom"
(assert
  (forall ((x Int))
    (! (=> (in_range x) (= (to_rep1 (of_rep1 x)) x)) :pattern ((to_rep1
                                                                 (of_rep1 x))) )))

;; "in_range"
(define-fun in_range1 ((x Int)) Bool
  (and (<= 0 x) (<= x 2147483647)))

;; "to_rep"
(declare-fun to_rep2 (byte) (_ BitVec 8))

;; "of_rep"
(declare-fun of_rep2 ((_ BitVec 8)) byte)

;; "inversion_axiom"
(assert
  (forall ((x byte)) (! (= (of_rep2 (to_rep2 x)) x) :pattern ((to_rep2 x)) )))

;; "range_axiom"
(assert true)

;; "coerce_axiom"
(assert
  (forall ((x (_ BitVec 8)))
    (! (= (to_rep2 (of_rep2 x)) x) :pattern ((to_rep2 (of_rep2 x))) )))

(declare-sort map3 0)

;; "has_bounds"
(declare-fun has_bounds2 (map3
  Int
  Int) Bool)

(declare-datatypes ((t 0))
  (((tqtmk (rec__first tinteger_32B)(rec__last tinteger_32B)))))

;; "dynamic_property"
(define-fun dynamic_property ((range_first Int) (range_last Int) (low Int) (high Int)) Bool
  (and
    (in_range low)
    (and
      (in_range high)
      (=> (<= low high) (and (in_range1 low) (in_range1 high))))))

(declare-datatypes ((us_t 0))
  (((us_tqtmk (elts map3)(rt t)))))

;; "first"
(define-fun first ((a us_t)) Int
  (to_rep1 (rec__first (rt a))))

;; "last"
(define-fun last ((a us_t)) Int
  (to_rep1 (rec__last (rt a))))

;; "length"
(define-fun length1 ((a us_t)) Int
  (ite (<= (first a) (last a)) (+ (- (last a) (first a)) 1) 0))

;; "well_formed"
(define-fun well_formed ((a us_t)) Bool
  (has_bounds2
    (elts a)
    (to_rep1 (rec__first (rt a)))
    (to_rep1 (rec__last (rt a)))))

(declare-const m us_t)

(declare-const xor_m Bool)

(declare-datatypes ((t1 0))
  (((tqtmk1 (rec__first1 tinteger_32B)(rec__last1 tinteger_32B)))))

;; "mk"
(declare-fun mk (Int
  Int) t1)

;; "mk_def"
(assert
  (forall ((f Int) (l Int))
    (! (=>
         (in_range f)
         (=>
           (in_range l)
           (and
             (= (to_rep1 (rec__first1 (mk f l))) f)
             (= (to_rep1 (rec__last1 (mk f l))) l)))) :pattern ((mk f l)) )))

(declare-datatypes ((us_t1 0))
  (((us_tqtmk1 (elts1 map2)(rt1 t1)))))

;; "of_array"
(define-fun of_array ((a map2) (f Int) (l Int)) us_t1
  (us_tqtmk1 a (mk f l)))

;; "well_formed"
(define-fun well_formed1 ((a us_t1)) Bool
  (has_bounds1
    (elts1 a)
    (to_rep1 (rec__first1 (rt1 a)))
    (to_rep1 (rec__last1 (rt1 a)))))

;; "dynamic_invariant"
(define-fun dynamic_invariant1 ((temp___expr_255 us_t) (temp___is_init_251 Bool) (temp___skip_constant_252 Bool) (temp___do_toplevel_253 Bool) (temp___do_typ_inv_254 Bool)) Bool
  (and
    (=>
      (not (= temp___skip_constant_252 true))
      (dynamic_property
        0
        2147483647
        (first temp___expr_255)
        (last temp___expr_255)))
    (well_formed temp___expr_255)))

;; Goal "def'vc"
;; File "sparknacl-core.ads", line 83, characters 0-0
(assert
  (not
  (forall ((c map2))
    (=>
      (dynamic_invariant context true false true true)
      (=>
        (and
          (dynamic_property
            0
            2147483647
            (to_rep1 c__first)
            (to_rep1 c__last))
          (well_formed1 (of_array c (to_rep1 c__first) (to_rep1 c__last))))
        (=>
          (dynamic_invariant1 m true false true true)
          (=>
            (and
              (and
                (and
                  (and
                    (and
                      (and (= (to_rep1 c__first) 0) (= (first m) 0))
                      (=>
                        (= xor_m true)
                        (= (length1 m) (length
                                         (to_rep1 c__first)
                                         (to_rep1 c__last)))))
                    (=> (not (= xor_m true)) (= (length1 m) 64)))
                  (< (to_rep1 c__last) 2147483647))
                (<= 0 (to_rep1 c__first)))
              (<= 0 (first m)))
            (forall ((o Int))
              (=>
                (= (to_rep1 c__last) o)
                (forall ((o1 Int))
                  (=>
                    (= (to_rep1 c__first) o1)
                    (forall ((o2 Int))
                      (=>
                        (= (to_rep1 c__last) o2)
                        (forall ((o3 Int))
                          (=>
                            (= (to_rep1 c__first) o3)
                            (<= (length o3 o2) 2147483647))))))))))))))))

(check-sat)
